# write_size frequency
0 0
1 655379
2 6270
3 736
4 277
5 99
6 90
7 1
