# write_size frequency
0 0
1 271865
2 1423
3 142
4 165
5 7
6 5
