# write_size frequency
0 0
1 286030
2 1419
3 152
4 154
5 6
6 5
