# write_size frequency
0 0
1 264415
2 1332
3 128
4 157
5 5
6 4
